
Gurobi 11.0.0 (linux64) logging started Tue Sep 17 05:03:52 2024

Set parameter LogFile to value "gurobi.log"
Set parameter InfUnbdInfo to value 1
Gurobi Optimizer version 11.0.0 build v11.0.0rc2 (linux64 - "Ubuntu 22.04.4 LTS")

CPU model: AMD EPYC 7V13 64-Core Processor, instruction set [SSE2|AVX|AVX2]
Thread count: 128 physical cores, 128 logical processors, using up to 32 threads

Optimize a model with 31 rows, 340 columns and 104 nonzeros
Model fingerprint: 0x398317c7
Model has 334 quadratic constraints
Model has 2 general constraints
Variable types: 93 continuous, 247 integer (0 binary)
Coefficient statistics:
  Matrix range     [1e+00, 5e+04]
  QMatrix range    [1e+00, 5e+04]
  QLMatrix range   [1e+00, 5e+04]
  Objective range  [1e+00, 1e+00]
  Bounds range     [1e+00, 5e+11]
  RHS range        [1e+00, 1e+00]
  QRHS range       [1e+00, 2e+06]
Warning: Model contains large bounds
         Consider reformulating model or setting NumericFocus parameter
         to avoid numerical issues.
Using branch priorities (all 0).
Presolve added 95 rows and 38 columns
Presolve time: 0.01s
Presolved: 1224 rows, 542 columns, 3274 nonzeros
Presolved model has 28 SOS constraint(s)
Presolved model has 198 bilinear constraint(s)
Warning: Model contains variables with very large bounds participating
         in product terms.
         Presolve was not able to compute smaller bounds for these variables.
         Consider bounding these variables or reformulating the model.


Solving non-convex MIQCP

Variable types: 171 continuous, 371 integer (165 binary)

Root relaxation: objective 6.020207e+03, 190 iterations, 0.00 seconds (0.00 work units)

    Nodes    |    Current Node    |     Objective Bounds      |     Work
 Expl Unexpl |  Obj  Depth IntInf | Incumbent    BestBd   Gap | It/Node Time

     0     0 6020.20650    0   97          - 6020.20650      -     -    0s
     0     0 6020.20650    0   91          - 6020.20650      -     -    0s
H    0     0                    194653.00000 6020.20650  96.9%     -    0s
     0     0 6032.84588    0  120 194653.000 6032.84588  96.9%     -    0s
     0     0 6032.84588    0  117 194653.000 6032.84588  96.9%     -    0s
H    0     0                    130560.00000 6110.44588  95.3%     -    0s
     0     0 6110.44588    0  107 130560.000 6110.44588  95.3%     -    0s
     0     0 6233.41664    0  126 130560.000 6233.41664  95.2%     -    0s
     0     0 6234.27643    0  125 130560.000 6234.27643  95.2%     -    0s
H    0     0                    106560.00000 6234.27643  94.1%     -    0s
     0     0 6234.27643    0  107 106560.000 6234.27643  94.1%     -    0s
H    0     0                    34387.263709 6234.27643  81.9%     -    0s
     0     0 6235.26320    0  142 34387.2637 6235.26320  81.9%     -    0s
     0     0 6235.26320    0   66 34387.2637 6235.26320  81.9%     -    0s
     0     0 6235.26320    0  101 34387.2637 6235.26320  81.9%     -    0s
     0     0 6235.26320    0   99 34387.2637 6235.26320  81.9%     -    0s
     0     0 6235.26320    0  101 34387.2637 6235.26320  81.9%     -    0s
     0     0 6235.26320    0   95 34387.2637 6235.26320  81.9%     -    0s
     0     0 6235.26320    0   93 34387.2637 6235.26320  81.9%     -    0s
     0     0 6235.26320    0  122 34387.2637 6235.26320  81.9%     -    0s
     0     0 6241.97198    0   98 34387.2637 6241.97198  81.8%     -    0s
     0     0 6241.97198    0   94 34387.2637 6241.97198  81.8%     -    0s
     0     0 6247.88491    0   89 34387.2637 6247.88491  81.8%     -    0s
H    0     0                    30387.263709 6249.80457  79.4%     -    0s
     0     0 6249.80457    0   88 30387.2637 6249.80457  79.4%     -    0s
     0     0 6249.80457    0   88 30387.2637 6249.80457  79.4%     -    0s
H    0     0                    26175.000000 6249.80457  76.1%     -    0s
     0     0 6378.56588    0   95 26175.0000 6378.56588  75.6%     -    0s
     0     0 6378.65166    0   94 26175.0000 6378.65166  75.6%     -    0s
H    0     0                    24175.000000 6478.00890  73.2%     -    0s
     0     0 6478.00899    0   89 24175.0000 6478.00899  73.2%     -    0s
     0     0 6619.92342    0  128 24175.0000 6619.92342  72.6%     -    0s
     0     0 8146.11427    0   93 24175.0000 8146.11427  66.3%     -    0s
H    0     0                    24055.000000 8148.10787  66.1%     -    0s
H    0     0                    20055.000000 8148.10787  59.4%     -    0s
     0     0 8148.10787    0  106 20055.0000 8148.10787  59.4%     -    0s
     0     0 8164.23248    0   81 20055.0000 8164.23248  59.3%     -    1s
     0     0 8164.23248    0   73 20055.0000 8164.23248  59.3%     -    1s
     0     0 8164.23248    0   78 20055.0000 8164.23248  59.3%     -    1s
H    0     0                    19055.000000 8164.23248  57.2%     -    1s
     0     0 8164.23248    0   54 19055.0000 8164.23248  57.2%     -    1s
     0     0 8164.23248    0   74 19055.0000 8164.23248  57.2%     -    1s
     0     0 8172.76168    0   68 19055.0000 8172.76168  57.1%     -    1s
     0     0 8284.70087    0   67 19055.0000 8284.70087  56.5%     -    1s
     0     0 8294.46700    0   67 19055.0000 8294.46700  56.5%     -    1s
     0     0 8294.46700    0   67 19055.0000 8294.46700  56.5%     -    1s
     0     0 8338.33957    0   64 19055.0000 8338.33957  56.2%     -    1s
     0     0 8372.74153    0   63 19055.0000 8372.74153  56.1%     -    1s
     0     0 8429.89932    0   64 19055.0000 8429.89932  55.8%     -    1s
     0     0 8429.89932    0   71 19055.0000 8429.89932  55.8%     -    1s
     0     0 8429.89932    0   67 19055.0000 8429.89932  55.8%     -    1s
     0     0 8431.22382    0   93 19055.0000 8431.22382  55.8%     -    1s
H    0     0                    18698.981113 8431.22382  54.9%     -    2s
     0     0 8514.15228    0   65 18698.9811 8514.15228  54.5%     -    2s
     0     0 8514.15228    0   70 18698.9811 8514.15228  54.5%     -    2s
H    0     0                    18523.981113 8514.15228  54.0%     -    2s
     0     0 8514.15228    0   62 18523.9811 8514.15228  54.0%     -    2s
H    0     0                    18403.981113 8514.15228  53.7%     -    2s
     0     0 8582.05503    0   72 18403.9811 8582.05503  53.4%     -    2s
     0     0 8601.12789    0   72 18403.9811 8601.12789  53.3%     -    2s
     0     0 8619.51244    0   72 18403.9811 8619.51244  53.2%     -    2s
     0     0 8630.15228    0   73 18403.9811 8630.15228  53.1%     -    2s
     0     0 8641.81894    0   79 18403.9811 8641.81894  53.0%     -    2s
     0     0 8650.15228    0   39 18403.9811 8650.15228  53.0%     -    2s
     0     0 8666.81894    0   75 18403.9811 8666.81894  52.9%     -    2s
     0     0 8675.70783    0   74 18403.9811 8675.70783  52.9%     -    2s
     0     0 8680.15228    0   74 18403.9811 8680.15228  52.8%     -    2s
     0     0 8694.13962    0   74 18403.9811 8694.13962  52.8%     -    2s
     0     0 8710.43006    0   56 18403.9811 8710.43006  52.7%     -    2s
     0     0 8710.43006    0   49 18403.9811 8710.43006  52.7%     -    2s
     0     0 8710.43006    0   65 18403.9811 8710.43006  52.7%     -    2s
     0     0 8710.43006    0   70 18403.9811 8710.43006  52.7%     -    3s
     0     0 8710.43006    0   74 18403.9811 8710.43006  52.7%     -    3s
     0     0 8710.43006    0   75 18403.9811 8710.43006  52.7%     -    3s
     0     0 8710.43006    0   70 18403.9811 8710.43006  52.7%     -    3s
     0     0 8710.43006    0   66 18403.9811 8710.43006  52.7%     -    3s
     0     0 8710.43006    0   65 18403.9811 8710.43006  52.7%     -    3s
     0     0 8710.43006    0   65 18403.9811 8710.43006  52.7%     -    3s
     0     0 8710.43006    0   65 18403.9811 8710.43006  52.7%     -    3s
     0     0 8710.43006    0   65 18403.9811 8710.43006  52.7%     -    3s
H    0     0                    18403.980074 8710.43006  52.7%     -    3s
     0     0 8710.43006    0   65 18403.9801 8710.43006  52.7%     -    3s
     0     0 8710.43006    0   65 18403.9801 8710.43006  52.7%     -    3s
     0     0 8710.43006    0   64 18403.9801 8710.43006  52.7%     -    3s
     0     2 8710.43006    0   64 18403.9801 8710.43006  52.7%     -    3s
H  331    38                    17649.648820 8710.43006  50.6%   8.2    4s
H  333    38                    17599.648820 8710.43006  50.5%   8.1    4s
*  334    38              14    17539.648820 8710.43006  50.3%   8.1    4s

Cutting planes:
  Gomory: 2
  Cover: 1
  Implied bound: 18
  MIR: 36
  StrongCG: 1
  Flow cover: 3
  Inf proof: 1
  RLT: 26
  Relax-and-lift: 15

Explored 670 nodes (6803 simplex iterations) in 4.34 seconds (0.30 work units)
Thread count was 32 (of 128 available processors)

Solution count 10: 17539.6 17599.6 17649.6 ... 24175

Optimal solution found (tolerance 1.00e-10)
Warning: max constraint violation (4.6366e-04) exceeds tolerance
Warning: max general constraint violation (4.6366e-04) exceeds tolerance
Best objective 1.753964882018e+04, best bound 1.753964882018e+04, gap 0.0000%
